Route 1: 0 64 70 39 31 24 43 33 10 62 48 2 67 0
Route 2: 0 94 82 88 91 12 30 57 77 86 15 0
Route 3: 0 56 19 89 11 80 97 0
Route 4: 0 40 59 52 34 66 32 5 14 75 81 37 0
Route 5: 0 84 58 99 78 7 100 96 71 0
Route 6: 0 49 65 47 28 45 1 8 68 53 21 0
Route 7: 0 29 20 98 18 38 90 69 0
Route 8: 0 17 41 36 9 55 35 54 60 83 50 22 16 0
Route 9: 0 4 79 85 6 76 72 25 0
Route 10: 0 74 23 87 26 51 92 13 3 0
Route 11: 0 95 27 73 93 46 63 42 61 0
Route 12: 0 44 0
